[VALIDATOR STDOUT]
Checking plan: /home/jfan5/Safety-gen/runs/benchmark/optic/grippers_20260129_162723/grippers/optic_results/grippers-n1-r9-o7-s7001.plan
Plan executed successfully - checking goal
Plan valid
Final value: 22 

Successful plans:
Value: 22
 /home/jfan5/Safety-gen/runs/benchmark/optic/grippers_20260129_162723/grippers/optic_results/grippers-n1-r9-o7-s7001.plan 22
